NAME : portcgen-28-15
COMMENT : portcgen N=28, seed=15
TYPE : TSP
DIMENSION : 28
EDGE_WEIGHT_TYPE : EUC_2D
NODE_COORD_SECTION
1 97973 89644
2 -321224 -219134
3 149485 57742
4 164478 280041
5 43287 -295430
6 311572 -289322
7 229473 -7500
8 -211919 146336
9 318668 88371
10 -43637 -236492
11 84274 129828
12 -162495 154963
13 307277 -231101
14 -159196 -220128
15 279131 16129
16 -37658 -269551
17 -87193 115465
18 296315 198420
19 -368108 -6743
20 235991 -117902
21 -111396 20797
22 107327 126725
23 36953 -190288
24 181516 -149918
25 200843 756
26 311961 62273
27 12543 89481
28 230160 -142382
